p cnf 7230 17
1192 1325 1839 0
-448 -1244 -1844 0
1194 1352 -1842 0
448 -1845 0
-1194 -1843 0
1844 1845 0
1842 1843 0
-1444 1841 0
1840 -1841 0
1444 -1840 0
1244 -1845 0
-1352 -1843 0
-814 -1310 1847 0
-1838 -1839 0
1310 -1847 0
814 -1847 0
1838 1839 0
